experiments/eusolverbv/4/DirectTrainGenes/1110010010011011010011111111100010111101001/283_.sl

(set-logic BV)

(define-fun shr1 ((x (BitVec 64))) (BitVec 64) (bvlshr x #x0000000000000001))
(define-fun shr4 ((x (BitVec 64))) (BitVec 64) (bvlshr x #x0000000000000004))
(define-fun shr16 ((x (BitVec 64))) (BitVec 64) (bvlshr x #x0000000000000010))
(define-fun shl1 ((x (BitVec 64))) (BitVec 64) (bvshl x #x0000000000000001))
(define-fun if0 ((x (BitVec 64)) (y (BitVec 64)) (z (BitVec 64))) (BitVec 64) (ite (= x #x0000000000000001) y z))
(define-fun func22  ((A (BitVec 64)) ) (BitVec 64) (bvand A  #x0000000000000001 ))
(define-fun func23  ((A (BitVec 64)) (B (BitVec 64)) (C (BitVec 64)) ) (BitVec 64) (bvand (bvlshr B  C ) A ))
(define-fun func24  ((A (BitVec 64)) (B (BitVec 64)) ) (BitVec 64) (bvand (bvlshr B  #x0000000000000001 ) A ))
(define-fun func25  ((A (BitVec 64)) (B (BitVec 64)) ) (BitVec 64) (bvand (bvlshr B  #x0000000000000010 ) A ))
(define-fun func26  ((A (BitVec 64)) (B (BitVec 64)) ) (BitVec 64) (bvand (bvlshr B  #x0000000000000004 ) A ))
(define-fun func27  ((A (BitVec 64)) (B (BitVec 64)) (C (BitVec 64)) (D (BitVec 64)) ) (BitVec 64) (bvand (bvlshr (bvlshr C  D ) B ) A ))
(define-fun func28  ((A (BitVec 64)) (B (BitVec 64)) ) (BitVec 64) (bvand (bvlshr A  B ) #x0000000000000001 ))
(define-fun func29  ((A (BitVec 64)) (B (BitVec 64)) ) (BitVec 64) (bvlshr A  B ))
(define-fun func30  ((A (BitVec 64)) (B (BitVec 64)) (C (BitVec 64)) ) (BitVec 64) (bvlshr (bvlshr B  C ) A ))
(define-fun func31  ((A (BitVec 64)) (B (BitVec 64)) ) (BitVec 64) (bvlshr (bvlshr B  #x0000000000000010 ) A ))
(define-fun func32  ((A (BitVec 64)) (B (BitVec 64)) ) (BitVec 64) (bvlshr (bvlshr B  #x0000000000000004 ) A ))
(define-fun func33  ((A (BitVec 64)) (B (BitVec 64)) (C (BitVec 64)) (D (BitVec 64)) ) (BitVec 64) (bvlshr (bvlshr (bvlshr C  D ) B ) A ))
(define-fun func34  ((A (BitVec 64)) (B (BitVec 64)) (C (BitVec 64)) ) (BitVec 64) (bvlshr (bvlshr (bvlshr C  #x0000000000000010 ) B ) A ))
(define-fun func35  ((A (BitVec 64)) (B (BitVec 64)) ) (BitVec 64) (bvlshr (bvlshr B  #x0000000000000001 ) A ))
(define-fun func36  ((A (BitVec 64)) (B (BitVec 64)) ) (BitVec 64) (bvlshr (bvlshr A  B ) #x0000000000000001 ))
(define-fun func37  ((A (BitVec 64)) (B (BitVec 64)) ) (BitVec 64) (bvlshr (bvlshr A  B ) #x0000000000000004 ))
(define-fun func38  ((A (BitVec 64)) (B (BitVec 64)) (C (BitVec 64)) ) (BitVec 64) (bvlshr (bvshl B  C ) A ))
(define-fun func39  ((A (BitVec 64)) (B (BitVec 64)) ) (BitVec 64) (bvlshr (bvshl B  #x0000000000000001 ) A ))
(define-fun func40  ((A (BitVec 64)) (B (BitVec 64)) ) (BitVec 64) (bvlshr (bvnot B ) A ))
(define-fun func41  ((A (BitVec 64)) ) (BitVec 64) (bvlshr (bvnot A ) #x0000000000000010 ))
(define-fun func42  ((A (BitVec 64)) (B (BitVec 64)) (C (BitVec 64)) ) (BitVec 64) (bvlshr (bvadd B  C ) A ))
(define-fun func44  ((A (BitVec 64)) (B (BitVec 64)) (C (BitVec 64)) ) (BitVec 64) (bvshl (bvlshr B  C ) A ))
(define-fun func45  ((A (BitVec 64)) (B (BitVec 64)) ) (BitVec 64) (bvshl (bvlshr B  #x0000000000000001 ) A ))
(define-fun func46  ((A (BitVec 64)) (B (BitVec 64)) ) (BitVec 64) (bvshl (bvlshr A  B ) #x0000000000000001 ))
(define-fun func47  ((A (BitVec 64)) (B (BitVec 64)) ) (BitVec 64) (bvshl (bvnot B ) A ))
(define-fun func48  ((A (BitVec 64)) ) (BitVec 64) (bvshl (bvnot A ) #x0000000000000001 ))
(define-fun func50  ((A (BitVec 64)) ) (BitVec 64) (bvnot (bvshl A  #x0000000000000001 )))
(define-fun func51  ((A (BitVec 64)) ) (BitVec 64) (bvadd A  #x0000000000000001 ))
(define-fun func52  ((A (BitVec 64)) (B (BitVec 64)) (C (BitVec 64)) ) (BitVec 64) (bvadd (bvlshr B  C ) A ))
(define-fun func53  ((A (BitVec 64)) (B (BitVec 64)) (C (BitVec 64)) ) (BitVec 64) (bvadd (bvshl B  C ) A ))
(define-fun func54  ((A (BitVec 64)) (B (BitVec 64)) ) (BitVec 64) (bvadd (bvshl B  #x0000000000000001 ) A ))
(define-fun func55  ((A (BitVec 64)) ) (BitVec 64) (bvor A  #x0000000000000001 ))
(define-fun func56  ((A (BitVec 64)) (B (BitVec 64)) (C (BitVec 64)) ) (BitVec 64) (bvor (bvlshr B  C ) A ))
(synth-fun f ( (x (BitVec 64))) (BitVec 64)
(
(Start (BitVec 64) (
   #x0000000000000000
   #x0000000000000001
   x
   (func22 Start)
   (func23 Start Start Start)
   (func24 Start Start)
   (func27 Start Start Start Start)
   (func30 Start Start Start)
   (func33 Start Start Start Start)
   (func34 Start Start Start)
   (func36 Start Start)
   (func37 Start Start)
   (func39 Start Start)
   (func42 Start Start Start)
   (func44 Start Start Start)
   (func45 Start Start)
   (func46 Start Start)
   (func47 Start Start)
   (func48 Start)
   (func50 Start)
   (func51 Start)
   (func52 Start Start Start)
   (func56 Start Start Start)
   (bvnot Start)
   (bvand Start Start)
   (bvxor Start Start)
   (bvadd Start Start)
   (if0 Start Start Start)
))
))
(constraint (= (f #x0ac59554d73b7516) #x0562caaa6b9dba8b))
(constraint (= (f #x2dd3d058095b8556) #x16e9e82c04adc2ab))
(constraint (= (f #x4321839aaef5cf66) #x2190c1cd577ae7b3))
(constraint (= (f #xb3c5d59185a6c080) #x59e2eac8c2d36041))
(constraint (= (f #x704ae23ce027de46) #x3825711e7013ef23))
(constraint (= (f #x0108421084210852) #x0084210842108429))
(constraint (= (f #x00421084210842d6) #x002108421084216b))
(constraint (= (f #x001084318c6318d6) #x00084218c6318c6b))
(constraint (= (f #x085294a5296b5ad6) #x04294a5294b5ad6b))
(constraint (= (f #x0318c6318c635ad6) #x018c6318c631ad6b))
(constraint (= (f #x3c38180e1e1a1826) #x0000000000000001))
(constraint (= (f #x10c2c12084060c32) #x0000000000000001))
(constraint (= (f #x42821c340f002962) #x0000000000000001))
(constraint (= (f #x8342d0505a14a026) #x0000000000000001))
(constraint (= (f #x80a1685a4052c126) #x0000000000000001))
(constraint (= (f #x7badd991222c9a1e) #x7badfbbdfbbdba3e))
(constraint (= (f #x1f6baf2ee73ce97c) #x1f6bbf6fef3eef7c))
(constraint (= (f #xd914f5d364cb01fc) #xd914fdd7f5db65ff))
(constraint (= (f #x09d5a9cb3c36a348) #x09d5a9dfbdffbf7e))
(constraint (= (f #x1d32e1db08b18b7a) #x1d32fdfbe9fb8bfb))
(constraint (= (f #x5e3acd1bf96cad2d) #x2f1d668dfcb65697))
(constraint (= (f #x8e1796a42b50fe1b) #x470bcb5215a87f0d))
(constraint (= (f #x04777f6f8f1cebdd) #x023bbfb7c78e75ef))
(constraint (= (f #x9945d0282de91349) #x4ca2e81416f489a5))
(constraint (= (f #xddf94730f66682eb) #x6efca3987b334175))
(constraint (= (f #x0842108421084318) #x042108421084218d))
(constraint (= (f #x0a529ce739ce739c) #x05294e739ce739cf))
(constraint (= (f #x0108c6b5ad6b5ade) #x0084635ad6b5ad6f))
(constraint (= (f #x00008c6318c639de) #x000046318c631cef))
(constraint (= (f #x00000000008439de) #x0000000000421cef))
(constraint (= (f #xf0070a034a1a183a) #xf007fa074a1b5a3a))
(constraint (= (f #x483412921681296a) #x48345ab616933feb))
(constraint (= (f #x1a03c2160f0b496a) #x1a03da17cf1f4f6b))
(constraint (= (f #xa0a0870060b0d07a) #xa0a0a7a0e7b0f0fa))
(constraint (= (f #x292d20b49005052a) #x292d29bdb0b5952f))
(constraint (= (f #x218c635ad6f7ffff) #x218c635ad6f7ffff))
(constraint (= (f #x0001084252d7bfff) #x0001084252d7bfff))
(constraint (= (f #x8c6319ce77bdef7b) #x8c6319ce77bdef7b))
(constraint (= (f #x0218c6318c6339ff) #x0218c6318c6339ff))
(constraint (= (f #x000421294e739cff) #x000421294e739cff))
(constraint (= (f #x9050385014b4106b) #x0000000000000001))
(constraint (= (f #xa140e0c212d0243f) #x0000000000000001))
(constraint (= (f #x5a4a41c1e0b4287b) #x0000000000000001))
(constraint (= (f #x860834b01e10052b) #x0000000000000001))
(constraint (= (f #x80b4206924920c3f) #x0000000000000001))
(constraint (= (f #xfe9460364eeeeda3) #xfe9460364eeeeda3))
(constraint (= (f #x0650095c4c68d931) #x0650095c4c68d931))
(constraint (= (f #x0a847f8161c55867) #x0a847f8161c55867))
(constraint (= (f #xc7be1abc4772c7c5) #xc7be1abc4772c7c5))
(constraint (= (f #xb52c05205a88d113) #xb52c05205a88d113))
(constraint (= (f #x000000000000007b) #x000000000000007b))
(constraint (= (f #x008421084210843f) #x008421084210843f))
(constraint (= (f #x000000000000843b) #x000000000000843b))
(constraint (= (f #x008421084210843b) #x008421084210843b))
(constraint (= (f #x000000000021087b) #x000000000021087b))
(constraint (= (f #x001086318c635ad7) #x001086318c635ad7))
(constraint (= (f #x4294a5294b5bdef7) #x4294a5294b5bdef7))
(constraint (= (f #x5294b5ad6b5ad6b5) #x5294b5ad6b5ad6b5))
(constraint (= (f #x08421084215adef7) #x08421084215adef7))
(constraint (= (f #x0000008c6319ce73) #x0000008c6319ce73))
(constraint (= (f #x78128142124924b3) #x78128142124924b3))
(constraint (= (f #x10c25834a1429437) #x10c25834a1429437))
(constraint (= (f #xb4a0c10283803063) #xb4a0c10283803063))
(constraint (= (f #x904b490784105073) #x904b490784105073))
(constraint (= (f #x690784b070604037) #x690784b070604037))
(constraint (= (f #x421084294a5294b7) #x421084294a5294b7))
(constraint (= (f #x008421294a5294b7) #x008421294a5294b7))
(constraint (= (f #x0000421084210873) #x0000421084210873))
(constraint (= (f #x00008421084210b7) #x00008421084210b7))
(constraint (= (f #x000004294a5294b7) #x000004294a5294b7))
(check-synth)
