experiments/eusolverbv/4/DirectTrainGenes/1110010010011011010011111111100010111101001/283_.out
(define-fun f ((x (BitVec 64))) (BitVec 64)
     (if0 (func22 x) (if0 (func24 (func37 x #x0000000000000001) x) (if0 (func22 (func34 #x0000000000000001 #x0000000000000001 x)) #x0000000000000001 (if0 (func22 (func37 (func51 x) #x0000000000000000)) x (if0 (func22 (func34 #x0000000000000001 #x0000000000000000 x)) #x0000000000000001 (if0 (func22 (func36 x (func51 #x0000000000000001))) (if0 (func24 (func51 (func51 x)) x) x #x0000000000000001) x)))) (if0 (func22 (func36 x (func51 #x0000000000000001))) (if0 (func22 (func37 x #x0000000000000000)) (if0 (func22 (func37 x #x0000000000000001)) x (func56 #x0000000000000001 x #x0000000000000001)) (func56 #x0000000000000001 x #x0000000000000001)) x)) (if0 (func24 (func37 x #x0000000000000001) x) (if0 (func22 (func36 x (func51 #x0000000000000001))) (func56 (func34 #x0000000000000000 #x0000000000000000 x) x #x0000000000000000) #x0000000000000001) (if0 (func22 (func36 x (func51 #x0000000000000001))) (if0 (func22 (func37 x #x0000000000000001)) (func56 (func34 #x0000000000000000 #x0000000000000000 x) x #x0000000000000000) (if0 (func22 (func34 #x0000000000000001 #x0000000000000001 x)) (if0 (func22 (func37 x #x0000000000000000)) (if0 (func22 (func34 #x0000000000000001 #x0000000000000000 x)) (func56 #x0000000000000001 x #x0000000000000001) (if0 (func22 (func37 x (func51 #x0000000000000001))) (func36 x #x0000000000000000) (func56 (func34 #x0000000000000000 #x0000000000000000 x) x #x0000000000000000))) (func56 (func34 #x0000000000000000 #x0000000000000000 x) x #x0000000000000000)) (func56 #x0000000000000001 x #x0000000000000001))) (func56 #x0000000000000001 x #x0000000000000001)))))
106.66358546726406
